160 134 197 127 20 193 113 105 6 120 93 152 55 194 95 162 90 14 54 25 107 17 185 42 137 170 43 130 71 153 112 192 104 177 74 196 178 73 139 186 11 5 172 31 9 81 143 131 128 114 77 72 7 173 183 2 140 68 15 39 151 61 103 123 58 65 57 37 145 75 144 79 29 132 135 136 133 8 97 60 125 82 21 96 156 174 175 38 56 176 84 49 47 26 0 76 80 64 149 100 163 62 98 1 147 181 69 119 66 18 157 59 198 27 142 180 138 161 89 48 24 101 124 36 12 164 118 87 110 10 53 126 45 171 88 159 108 102 22 182 106 28 32 122 91 92 150 63 146 16 190 191 30 167 141 148 155 169 111 70 23 187 199 188 86 115 179 116 40 109 189 99 67 168 35 19 41 129 154 85 195 158 184 121 44 166 4 33 78 52 50 94 165 13 83 117 51 46 3 34 

